NAME: A-n6-f2
COMMENT : -
TYPE : GVRP
DIMENSION : 7
EDGE_WEIGHT_TYPE : EUC_2D
CAPACITY : 100
AUTONOMY : 392
TIME LIMIT : 11
SPEED : 40.0
FUEL CONSUMPTION : 1.0
DEPOT_COORD_SECTION
0 82 76
CUSTOMER_COORD_SECTION
1 96 44 19 0.5017006992703338
2 13 7 21 0.8180235602813328
3 84 25 6 0.4918387809707443
4 85 60 19 0.12790233326185085
5 98 5 7 0.7661045655409894
AFS_COORD_SECTION
6 82 70 0.6748402944780775
7 21 48 0.5342472115141215
EOF